SDVRP instances/custom_instances/p03_5_splitx10_0.vrp
NAME:p03_5_splitx10_
BEST_KNOWN: 0
COMMENT: 0
DIMENSION: 450
CAPACITY: 2000
EDGE_WEIGHT_FORMAT: FUNCTION
EDGE_WEIGHT_TYPE: EXACT_2D
NODE_COORD_SECTION
1 0.00000 0.00000
2 7 -40
3 7 -40
4 7 -40
5 7 -40
6 7 -40
7 -5 -4
8 -5 -4
9 -5 -4
10 -5 -4
11 -5 -4
12 -5 -4
13 -5 -4
14 -5 -4
15 -27 3
16 -27 3
17 -27 3
18 -27 3
19 -27 3
20 48 -12
21 48 -12
22 48 -12
23 48 -12
24 48 -12
25 45 33
26 45 33
27 45 33
28 45 33
29 -6 23
30 -6 23
31 -6 23
32 -6 23
33 -6 23
34 -6 23
35 -6 23
36 3 50
37 3 50
38 3 50
39 3 50
40 3 50
41 -7 34
42 -7 34
43 -7 34
44 -7 34
45 -7 34
46 -7 34
47 -38 45
48 -38 45
49 -38 45
50 -38 45
51 -36 47
52 -36 47
53 39 -43
54 39 -43
55 39 -43
56 39 -43
57 39 -43
58 -29 4
59 -29 4
60 -29 4
61 -29 4
62 -29 4
63 17 30
64 17 30
65 17 30
66 17 30
67 17 30
68 4 -21
69 4 -21
70 4 -21
71 4 -21
72 4 -21
73 4 -21
74 4 -21
75 28 -15
76 28 -15
77 28 -15
78 28 -15
79 28 -15
80 -31 44
81 -31 44
82 -31 44
83 32 24
84 32 24
85 -4 -35
86 -4 -35
87 -4 -35
88 -4 -35
89 -28 -21
90 -28 -21
91 -28 -21
92 -28 -21
93 22 35
94 22 35
95 22 35
96 22 35
97 22 35
98 50 44
99 50 44
100 50 44
101 50 44
102 50 44
103 -20 -33
104 -20 -33
105 -20 -33
106 -20 -33
107 -20 -33
108 -20 -33
109 -20 -33
110 39 -27
111 39 -27
112 39 -27
113 -29 -12
114 -29 -12
115 -29 -12
116 -29 -12
117 -29 -12
118 -29 -12
119 -29 -12
120 -33 -41
121 -33 -41
122 -33 -41
123 -33 -41
124 -33 -41
125 27 -13
126 27 -13
127 27 -13
128 27 -13
129 -34 0
130 -34 0
131 -34 0
132 -34 0
133 -34 0
134 -34 0
135 -34 0
136 -49 -45
137 -49 -45
138 -49 -45
139 -49 -45
140 8 22
141 8 22
142 8 22
143 8 22
144 8 22
145 -28 41
146 -28 41
147 49 -33
148 49 -33
149 49 -33
150 0 -27
151 0 -27
152 0 -27
153 0 -27
154 47 -44
155 47 -44
156 47 -44
157 47 -44
158 47 -44
159 19 -32
160 19 -32
161 19 -32
162 19 -32
163 19 -32
164 -2 -18
165 -2 -18
166 -2 -18
167 -2 -18
168 -2 -18
169 -2 -18
170 -1 -31
171 -1 -31
172 -1 -31
173 -1 -31
174 -1 -31
175 -1 -31
176 -1 -31
177 16 -37
178 16 -37
179 16 -37
180 16 -37
181 16 -37
182 16 -37
183 25 15
184 25 15
185 25 15
186 25 15
187 11 13
188 11 13
189 11 13
190 11 13
191 11 13
192 11 13
193 11 13
194 11 13
195 27 22
196 27 22
197 27 22
198 0 -11
199 0 -11
200 0 -11
201 0 -11
202 0 -11
203 17 36
204 17 36
205 17 36
206 -42 39
207 -42 39
208 -42 39
209 21 49
210 21 49
211 21 49
212 24 28
213 24 28
214 24 28
215 24 28
216 24 28
217 24 28
218 -47 -14
219 -47 -14
220 -47 -14
221 -47 -14
222 -10 32
223 -10 32
224 -10 32
225 -10 32
226 -10 32
227 -9 18
228 -9 18
229 -9 18
230 -9 18
231 -12 1
232 -12 1
233 -12 1
234 14 32
235 14 32
236 14 32
237 14 32
238 -39 2
239 -39 2
240 -39 2
241 -26 -24
242 -26 -24
243 -26 -24
244 -26 -24
245 -26 -24
246 20 -48
247 20 -48
248 20 -48
249 20 -48
250 -32 15
251 -32 15
252 -32 15
253 -32 15
254 -32 15
255 -32 15
256 -4 25
257 -4 25
258 -4 25
259 -4 25
260 -4 25
261 -4 25
262 -9 12
263 -9 12
264 -9 12
265 -3 -46
266 -3 -46
267 -3 -46
268 -29 27
269 -29 27
270 -29 27
271 43 46
272 43 46
273 43 46
274 43 46
275 43 46
276 43 46
277 43 46
278 43 46
279 -46 41
280 -46 41
281 -46 41
282 -46 41
283 -46 41
284 -46 41
285 -46 41
286 47 -15
287 47 -15
288 47 -15
289 47 -15
290 47 -15
291 16 -31
292 16 -31
293 21 -38
294 21 -38
295 21 -38
296 -21 -39
297 -21 -39
298 -21 -39
299 24 28
300 24 28
301 24 28
302 9 -3
303 9 -3
304 9 -3
305 9 -3
306 9 -3
307 9 -3
308 -36 -43
309 -36 -43
310 -36 -43
311 32 40
312 32 40
313 32 40
314 32 40
315 32 40
316 32 40
317 32 40
318 -47 2
319 -47 2
320 -47 2
321 16 -29
322 16 -29
323 16 -29
324 16 -29
325 16 -29
326 -31 27
327 -31 27
328 -17 -9
329 -17 -9
330 35 -40
331 35 -40
332 35 -40
333 44 48
334 44 48
335 44 48
336 44 48
337 44 48
338 44 48
339 -6 21
340 -6 21
341 -36 -26
342 -36 -26
343 -36 -26
344 -36 -26
345 -25 48
346 -25 48
347 -25 48
348 -25 48
349 -25 48
350 47 0
351 47 0
352 47 0
353 47 0
354 47 0
355 47 0
356 47 0
357 -5 -12
358 -5 -12
359 -5 -12
360 -5 -12
361 -5 -12
362 -5 -12
363 -5 -12
364 18 10
365 18 10
366 18 10
367 18 10
368 -16 14
369 -16 14
370 -16 14
371 -16 14
372 -16 14
373 33 -31
374 33 -31
375 33 -31
376 33 -31
377 33 -31
378 33 -31
379 16 -22
380 16 -22
381 16 -22
382 16 -22
383 16 -22
384 16 -22
385 -42 10
386 -42 10
387 16 -33
388 16 -33
389 16 -33
390 16 -33
391 16 -33
392 -8 -49
393 -8 -49
394 -8 -49
395 33 -41
396 33 -41
397 33 -41
398 33 -41
399 -50 -2
400 -50 -2
401 -50 -2
402 -50 -2
403 -50 -2
404 -50 -2
405 10 50
406 10 50
407 10 50
408 10 50
409 10 50
410 -11 -1
411 -11 -1
412 -11 -1
413 -11 -1
414 31 -40
415 18 33
416 18 33
417 18 33
418 18 33
419 18 33
420 18 33
421 18 33
422 -29 -36
423 -29 -36
424 -29 -36
425 -29 -36
426 -47 19
427 -47 19
428 -47 19
429 -47 19
430 -20 42
431 -20 42
432 -29 48
433 -29 48
434 -29 48
435 -21 47
436 -21 47
437 -21 47
438 -21 47
439 -25 -14
440 -25 -14
441 46 18
442 46 18
443 46 18
444 46 18
445 46 18
446 46 18
447 50 -9
448 50 -9
449 50 -9
450 50 -9
DEMAND_SECTION
1 0
2 400
3 400
4 100
5 20
6 20
7 400
8 400
9 100
10 20
11 20
12 20
13 20
14 10
15 400
16 200
17 100
18 20
19 20
20 400
21 200
22 20
23 20
24 20
25 200
26 100
27 20
28 20
29 400
30 400
31 100
32 20
33 20
34 20
35 20
36 400
37 200
38 20
39 20
40 10
41 400
42 400
43 20
44 20
45 20
46 10
47 200
48 100
49 20
50 10
51 200
52 100
53 400
54 100
55 20
56 20
57 10
58 400
59 400
60 20
61 20
62 20
63 400
64 400
65 100
66 20
67 20
68 400
69 400
70 100
71 20
72 20
73 20
74 20
75 200
76 20
77 20
78 20
79 10
80 400
81 400
82 100
83 400
84 200
85 400
86 400
87 20
88 20
89 400
90 20
91 20
92 20
93 200
94 100
95 20
96 20
97 10
98 400
99 400
100 100
101 20
102 10
103 400
104 100
105 20
106 20
107 20
108 20
109 10
110 400
111 20
112 20
113 400
114 400
115 100
116 20
117 20
118 20
119 20
120 400
121 400
122 100
123 20
124 20
125 400
126 400
127 20
128 10
129 400
130 400
131 100
132 20
133 20
134 20
135 20
136 400
137 200
138 20
139 20
140 400
141 400
142 20
143 20
144 20
145 400
146 400
147 400
148 100
149 10
150 200
151 100
152 20
153 10
154 200
155 100
156 20
157 20
158 10
159 400
160 400
161 20
162 20
163 20
164 400
165 400
166 20
167 20
168 20
169 10
170 400
171 200
172 20
173 20
174 20
175 20
176 10
177 400
178 20
179 20
180 20
181 20
182 10
183 400
184 400
185 20
186 20
187 400
188 400
189 100
190 20
191 20
192 20
193 20
194 10
195 400
196 400
197 20
198 400
199 200
200 100
201 20
202 10
203 400
204 400
205 20
206 200
207 100
208 10
209 400
210 20
211 10
212 200
213 20
214 20
215 20
216 20
217 10
218 400
219 200
220 20
221 20
222 400
223 400
224 20
225 20
226 10
227 200
228 20
229 20
230 10
231 400
232 200
233 100
234 400
235 20
236 20
237 10
238 400
239 100
240 20
241 400
242 20
243 20
244 20
245 10
246 400
247 200
248 100
249 10
250 200
251 100
252 20
253 20
254 20
255 20
256 400
257 400
258 20
259 20
260 20
261 10
262 400
263 200
264 100
265 400
266 20
267 20
268 400
269 400
270 10
271 400
272 400
273 100
274 20
275 20
276 20
277 20
278 10
279 400
280 200
281 20
282 20
283 20
284 20
285 10
286 200
287 100
288 20
289 20
290 10
291 400
292 200
293 400
294 400
295 100
296 400
297 400
298 100
299 400
300 400
301 10
302 400
303 200
304 20
305 20
306 20
307 20
308 400
309 400
310 100
311 400
312 200
313 100
314 20
315 20
316 20
317 10
318 400
319 400
320 10
321 400
322 200
323 20
324 20
325 10
326 400
327 20
328 400
329 10
330 200
331 100
332 10
333 400
334 400
335 100
336 20
337 20
338 10
339 400
340 100
341 400
342 100
343 20
344 20
345 400
346 100
347 20
348 20
349 20
350 400
351 400
352 100
353 20
354 20
355 20
356 20
357 400
358 100
359 20
360 20
361 20
362 20
363 10
364 400
365 400
366 20
367 20
368 400
369 20
370 20
371 20
372 20
373 400
374 200
375 100
376 20
377 20
378 10
379 400
380 100
381 20
382 20
383 20
384 10
385 400
386 100
387 400
388 20
389 20
390 20
391 10
392 400
393 400
394 100
395 400
396 200
397 100
398 10
399 400
400 400
401 20
402 20
403 20
404 10
405 200
406 100
407 20
408 20
409 20
410 400
411 400
412 100
413 20
414 400
415 400
416 200
417 100
418 20
419 20
420 20
421 10
422 400
423 200
424 20
425 10
426 200
427 20
428 20
429 20
430 400
431 100
432 400
433 100
434 20
435 200
436 100
437 20
438 20
439 400
440 200
441 400
442 200
443 20
444 20
445 20
446 10
447 400
448 100
449 20
450 20
DEPOT_SECTION
1
-1
EOF