SDVRP instances/custom_instances/p03_5_splitx10_0.sol
449 -5 4 1 2 3 386 291 290 -13 8 11 7 10 9 12 6 411 409 412 410 -16 239 238 317 319 318 398 399 401 402 403 400 -23 20 355 351 353 352 354 349 350 442 443 440 441 445 444 -24 26 25 27 274 273 271 275 270 277 310 313 316 312 315 311 314 -28 31 34 30 32 29 33 258 257 256 255 260 259 -40 43 45 41 42 44 224 221 223 225 222 229 228 226 227 -50 51 48 46 47 49 206 207 205 278 281 283 280 284 279 282 428 425 426 427 253 254 -57 60 61 59 58 15 17 14 18 230 232 -66 64 63 65 62 139 140 -68 73 69 71 67 70 72 171 169 170 149 152 150 151 200 -77 74 76 78 75 124 127 125 126 305 306 302 301 303 304 -86 87 84 295 297 296 108 105 102 107 103 106 104 -88 90 136 135 138 137 308 309 307 123 122 -91 89 340 342 343 341 220 217 219 218 132 131 133 128 130 -101 99 97 100 98 337 332 336 335 333 334 276 272 -111 110 147 148 146 153 154 157 155 156 52 56 55 53 54 331 329 330 374 381 382 -118 113 115 117 114 112 116 438 439 327 328 -142 143 141 209 208 210 407 406 408 404 405 37 35 36 38 39 339 338 -144 145 80 79 81 263 262 -160 161 292 413 397 395 396 394 377 372 -172 175 173 174 266 265 264 392 391 393 85 362 357 358 361 359 -179 176 180 177 178 181 247 245 246 248 293 294 390 387 389 388 -183 185 215 213 299 216 298 212 211 300 214 95 96 93 92 94 418 419 420 -184 182 82 83 196 194 195 -188 191 186 187 190 192 189 193 366 364 363 365 -201 199 198 197 166 167 168 164 165 163 356 360 -231 129 134 237 385 384 367 371 368 369 370 -234 235 233 236 202 203 204 414 415 417 416 -240 241 244 242 243 121 119 120 423 422 421 424 -250 252 251 249 325 326 268 269 267 261 -324 320 323 322 321 158 162 159 383 380 378 379 -373 375 376 109 285 289 288 286 287 19 22 21 449 447 446 448 -429 430 434 436 437 435 345 346 347 344 348 431 432 433 0 





OBJ=
3188.167
BEST_KNOWN=
0.000